data/mps_files/pEFS/42_1.mps
NAME foo
ROWS
 N  OBJ
 E  allocateEach[1]
 E  allocateEach[2]
 E  allocateAllCash
 G  findWorstP[1,2]
 G  findWorstP[1,3]
 G  findWorstP[2,1]
 G  findWorstP[2,3]
 G  findWorstP[3,1]
 G  findWorstP[3,2]
COLUMNS
    z         OBJ       1
    z         findWorstP[1,2]  1
    z         findWorstP[1,3]  1
    z         findWorstP[2,1]  1
    z         findWorstP[2,3]  1
    z         findWorstP[3,1]  1
    z         findWorstP[3,2]  1
    cashProportion[1]  allocateAllCash  1
    cashProportion[1]  findWorstP[1,2]  1.5274171376202844e-01
    cashProportion[1]  findWorstP[1,3]  1.5274171376202844e-01
    cashProportion[1]  findWorstP[2,1]  -6.8629469494200818e-02
    cashProportion[1]  findWorstP[3,1]  -1.0223903486351089e-01
    cashProportion[2]  allocateAllCash  1
    cashProportion[2]  findWorstP[1,2]  -1.5274171376202844e-01
    cashProportion[2]  findWorstP[2,1]  6.8629469494200818e-02
    cashProportion[2]  findWorstP[2,3]  6.8629469494200818e-02
    cashProportion[2]  findWorstP[3,2]  -1.0223903486351089e-01
    cashProportion[3]  allocateAllCash  1
    cashProportion[3]  findWorstP[1,3]  -1.5274171376202844e-01
    cashProportion[3]  findWorstP[2,3]  -6.8629469494200818e-02
    cashProportion[3]  findWorstP[3,1]  1.0223903486351089e-01
    cashProportion[3]  findWorstP[3,2]  1.0223903486351089e-01
    MARKER    'MARKER'                 'INTORG'
    x[1,1]    allocateEach[1]  1
    x[1,1]    findWorstP[1,2]  5.5185581182220877e-01
    x[1,1]    findWorstP[1,3]  5.5185581182220877e-01
    x[1,1]    findWorstP[2,1]  -2.5070345206231559e-01
    x[1,1]    findWorstP[3,1]  -2.5661997750741235e-02
    x[1,2]    allocateEach[2]  1
    x[1,2]    findWorstP[1,2]  2.9540247441576295e-01
    x[1,2]    findWorstP[1,3]  2.9540247441576295e-01
    x[1,2]    findWorstP[2,1]  -6.8066707844348362e-01
    x[1,2]    findWorstP[3,1]  -8.7209896738574788e-01
    x[2,1]    allocateEach[1]  1
    x[2,1]    findWorstP[1,2]  -5.5185581182220877e-01
    x[2,1]    findWorstP[2,1]  2.5070345206231559e-01
    x[2,1]    findWorstP[2,3]  2.5070345206231559e-01
    x[2,1]    findWorstP[3,2]  -2.5661997750741235e-02
    x[2,2]    allocateEach[2]  1
    x[2,2]    findWorstP[1,2]  -2.9540247441576295e-01
    x[2,2]    findWorstP[2,1]  6.8066707844348362e-01
    x[2,2]    findWorstP[2,3]  6.8066707844348362e-01
    x[2,2]    findWorstP[3,2]  -8.7209896738574788e-01
    x[3,1]    allocateEach[1]  1
    x[3,1]    findWorstP[1,3]  -5.5185581182220877e-01
    x[3,1]    findWorstP[2,3]  -2.5070345206231559e-01
    x[3,1]    findWorstP[3,1]  2.5661997750741235e-02
    x[3,1]    findWorstP[3,2]  2.5661997750741235e-02
    x[3,2]    allocateEach[2]  1
    x[3,2]    findWorstP[1,3]  -2.9540247441576295e-01
    x[3,2]    findWorstP[2,3]  -6.8066707844348362e-01
    x[3,2]    findWorstP[3,1]  8.7209896738574788e-01
    x[3,2]    findWorstP[3,2]  8.7209896738574788e-01
    MARKER    'MARKER'                 'INTEND'
RHS
    RHS1      allocateEach[1]  1
    RHS1      allocateEach[2]  1
    RHS1      allocateAllCash  1
BOUNDS
 UP BND1      z         1
 MI BND1      cashProportion[1]
 UP BND1      cashProportion[1]  1
 MI BND1      cashProportion[2]
 UP BND1      cashProportion[2]  1
 MI BND1      cashProportion[3]
 UP BND1      cashProportion[3]  1
 BV BND1      x[1,1]  
 BV BND1      x[1,2]  
 BV BND1      x[2,1]  
 BV BND1      x[2,2]  
 BV BND1      x[3,1]  
 BV BND1      x[3,2]  
ENDATA
